data/lp_files/pEFS/122_2.lp
\ Model foo
\ LP format - for model browsing. Use MPS format to capture full model detail.
Minimize
  z
Subject To
 allocateEach[1]: x[1,1] + x[2,1] + x[3,1] + x[4,1] + x[5,1] + x[6,1]
   + x[7,1] = 1
 allocateEach[2]: x[1,2] + x[2,2] + x[3,2] + x[4,2] + x[5,2] + x[6,2]
   + x[7,2] = 1
 allocateAllCash: cashProportion[1] + cashProportion[2] + cashProportion[3]
   + cashProportion[4] + cashProportion[5] + cashProportion[6]
   + cashProportion[7] = 1
 findWorstP[1,2]: z + 0.0894401049430565 cashProportion[1]
   - 0.0894401049430565 cashProportion[2] + 0.547492695724763 x[1,1]
   + 0.3630671993321806 x[1,2] - 0.547492695724763 x[2,1]
   - 0.3630671993321806 x[2,2] >= 0
 findWorstP[1,3]: z + 0.0894401049430565 cashProportion[1]
   - 0.0894401049430565 cashProportion[3] + 0.547492695724763 x[1,1]
   + 0.3630671993321806 x[1,2] - 0.547492695724763 x[3,1]
   - 0.3630671993321806 x[3,2] >= 0
 findWorstP[1,4]: z + 0.0894401049430565 cashProportion[1]
   - 0.0894401049430565 cashProportion[4] + 0.547492695724763 x[1,1]
   + 0.3630671993321806 x[1,2] - 0.547492695724763 x[4,1]
   - 0.3630671993321806 x[4,2] >= 0
 findWorstP[1,5]: z + 0.0894401049430565 cashProportion[1]
   - 0.0894401049430565 cashProportion[5] + 0.547492695724763 x[1,1]
   + 0.3630671993321806 x[1,2] - 0.547492695724763 x[5,1]
   - 0.3630671993321806 x[5,2] >= 0
 findWorstP[1,6]: z + 0.0894401049430565 cashProportion[1]
   - 0.0894401049430565 cashProportion[6] + 0.547492695724763 x[1,1]
   + 0.3630671993321806 x[1,2] - 0.547492695724763 x[6,1]
   - 0.3630671993321806 x[6,2] >= 0
 findWorstP[1,7]: z + 0.0894401049430565 cashProportion[1]
   - 0.0894401049430565 cashProportion[7] + 0.547492695724763 x[1,1]
   + 0.3630671993321806 x[1,2] - 0.547492695724763 x[7,1]
   - 0.3630671993321806 x[7,2] >= 0
 findWorstP[2,1]: z - 0.2586206896551724 cashProportion[1]
   + 0.2586206896551724 cashProportion[2] - 0.7096551724137931 x[1,1]
   - 0.0317241379310345 x[1,2] + 0.7096551724137931 x[2,1]
   + 0.0317241379310345 x[2,2] >= 0
 findWorstP[2,3]: z + 0.2586206896551724 cashProportion[2]
   - 0.2586206896551724 cashProportion[3] + 0.7096551724137931 x[2,1]
   + 0.0317241379310345 x[2,2] - 0.7096551724137931 x[3,1]
   - 0.0317241379310345 x[3,2] >= 0
 findWorstP[2,4]: z + 0.2586206896551724 cashProportion[2]
   - 0.2586206896551724 cashProportion[4] + 0.7096551724137931 x[2,1]
   + 0.0317241379310345 x[2,2] - 0.7096551724137931 x[4,1]
   - 0.0317241379310345 x[4,2] >= 0
 findWorstP[2,5]: z + 0.2586206896551724 cashProportion[2]
   - 0.2586206896551724 cashProportion[5] + 0.7096551724137931 x[2,1]
   + 0.0317241379310345 x[2,2] - 0.7096551724137931 x[5,1]
   - 0.0317241379310345 x[5,2] >= 0
 findWorstP[2,6]: z + 0.2586206896551724 cashProportion[2]
   - 0.2586206896551724 cashProportion[6] + 0.7096551724137931 x[2,1]
   + 0.0317241379310345 x[2,2] - 0.7096551724137931 x[6,1]
   - 0.0317241379310345 x[6,2] >= 0
 findWorstP[2,7]: z + 0.2586206896551724 cashProportion[2]
   - 0.2586206896551724 cashProportion[7] + 0.7096551724137931 x[2,1]
   + 0.0317241379310345 x[2,2] - 0.7096551724137931 x[7,1]
   - 0.0317241379310345 x[7,2] >= 0
 findWorstP[3,1]: z - 0.1667222407469157 cashProportion[1]
   + 0.1667222407469157 cashProportion[3] - 0.7581416027564745 x[1,1]
   - 0.07513615649661 x[1,2] + 0.7581416027564745 x[3,1]
   + 0.07513615649661 x[3,2] >= 0
 findWorstP[3,2]: z - 0.1667222407469157 cashProportion[2]
   + 0.1667222407469157 cashProportion[3] - 0.7581416027564745 x[2,1]
   - 0.07513615649661 x[2,2] + 0.7581416027564745 x[3,1]
   + 0.07513615649661 x[3,2] >= 0
 findWorstP[3,4]: z + 0.1667222407469157 cashProportion[3]
   - 0.1667222407469157 cashProportion[4] + 0.7581416027564745 x[3,1]
   + 0.07513615649661 x[3,2] - 0.7581416027564745 x[4,1]
   - 0.07513615649661 x[4,2] >= 0
 findWorstP[3,5]: z + 0.1667222407469157 cashProportion[3]
   - 0.1667222407469157 cashProportion[5] + 0.7581416027564745 x[3,1]
   + 0.07513615649661 x[3,2] - 0.7581416027564745 x[5,1]
   - 0.07513615649661 x[5,2] >= 0
 findWorstP[3,6]: z + 0.1667222407469157 cashProportion[3]
   - 0.1667222407469157 cashProportion[6] + 0.7581416027564745 x[3,1]
   + 0.07513615649661 x[3,2] - 0.7581416027564745 x[6,1]
   - 0.07513615649661 x[6,2] >= 0
 findWorstP[3,7]: z + 0.1667222407469157 cashProportion[3]
   - 0.1667222407469157 cashProportion[7] + 0.7581416027564745 x[3,1]
   + 0.07513615649661 x[3,2] - 0.7581416027564745 x[7,1]
   - 0.07513615649661 x[7,2] >= 0
 findWorstP[4,1]: z - 0.1767200754005655 cashProportion[1]
   + 0.1767200754005655 cashProportion[4] - 0.1459707822808671 x[1,1]
   - 0.6773091423185674 x[1,2] + 0.1459707822808671 x[4,1]
   + 0.6773091423185674 x[4,2] >= 0
 findWorstP[4,2]: z - 0.1767200754005655 cashProportion[2]
   + 0.1767200754005655 cashProportion[4] - 0.1459707822808671 x[2,1]
   - 0.6773091423185674 x[2,2] + 0.1459707822808671 x[4,1]
   + 0.6773091423185674 x[4,2] >= 0
 findWorstP[4,3]: z - 0.1767200754005655 cashProportion[3]
   + 0.1767200754005655 cashProportion[4] - 0.1459707822808671 x[3,1]
   - 0.6773091423185674 x[3,2] + 0.1459707822808671 x[4,1]
   + 0.6773091423185674 x[4,2] >= 0
 findWorstP[4,5]: z + 0.1767200754005655 cashProportion[4]
   - 0.1767200754005655 cashProportion[5] + 0.1459707822808671 x[4,1]
   + 0.6773091423185674 x[4,2] - 0.1459707822808671 x[5,1]
   - 0.6773091423185674 x[5,2] >= 0
 findWorstP[4,6]: z + 0.1767200754005655 cashProportion[4]
   - 0.1767200754005655 cashProportion[6] + 0.1459707822808671 x[4,1]
   + 0.6773091423185674 x[4,2] - 0.1459707822808671 x[6,1]
   - 0.6773091423185674 x[6,2] >= 0
 findWorstP[4,7]: z + 0.1767200754005655 cashProportion[4]
   - 0.1767200754005655 cashProportion[7] + 0.1459707822808671 x[4,1]
   + 0.6773091423185674 x[4,2] - 0.1459707822808671 x[7,1]
   - 0.6773091423185674 x[7,2] >= 0
 findWorstP[5,1]: z - 0.1784015223596575 cashProportion[1]
   + 0.1784015223596575 cashProportion[5] - 0.1952901998097051 x[1,1]
   - 0.6263082778306375 x[1,2] + 0.1952901998097051 x[5,1]
   + 0.6263082778306375 x[5,2] >= 0
 findWorstP[5,2]: z - 0.1784015223596575 cashProportion[2]
   + 0.1784015223596575 cashProportion[5] - 0.1952901998097051 x[2,1]
   - 0.6263082778306375 x[2,2] + 0.1952901998097051 x[5,1]
   + 0.6263082778306375 x[5,2] >= 0
 findWorstP[5,3]: z - 0.1784015223596575 cashProportion[3]
   + 0.1784015223596575 cashProportion[5] - 0.1952901998097051 x[3,1]
   - 0.6263082778306375 x[3,2] + 0.1952901998097051 x[5,1]
   + 0.6263082778306375 x[5,2] >= 0
 findWorstP[5,4]: z - 0.1784015223596575 cashProportion[4]
   + 0.1784015223596575 cashProportion[5] - 0.1952901998097051 x[4,1]
   - 0.6263082778306375 x[4,2] + 0.1952901998097051 x[5,1]
   + 0.6263082778306375 x[5,2] >= 0
 findWorstP[5,6]: z + 0.1784015223596575 cashProportion[5]
   - 0.1784015223596575 cashProportion[6] + 0.1952901998097051 x[5,1]
   + 0.6263082778306375 x[5,2] - 0.1952901998097051 x[6,1]
   - 0.6263082778306375 x[6,2] >= 0
 findWorstP[5,7]: z + 0.1784015223596575 cashProportion[5]
   - 0.1784015223596575 cashProportion[7] + 0.1952901998097051 x[5,1]
   + 0.6263082778306375 x[5,2] - 0.1952901998097051 x[7,1]
   - 0.6263082778306375 x[7,2] >= 0
 findWorstP[6,1]: z - 0.0957732090409909 cashProportion[1]
   + 0.0957732090409909 cashProportion[6] - 0.2737836802451794 x[1,1]
   - 0.6304431107138295 x[1,2] + 0.2737836802451794 x[6,1]
   + 0.6304431107138295 x[6,2] >= 0
 findWorstP[6,2]: z - 0.0957732090409909 cashProportion[2]
   + 0.0957732090409909 cashProportion[6] - 0.2737836802451794 x[2,1]
   - 0.6304431107138295 x[2,2] + 0.2737836802451794 x[6,1]
   + 0.6304431107138295 x[6,2] >= 0
 findWorstP[6,3]: z - 0.0957732090409909 cashProportion[3]
   + 0.0957732090409909 cashProportion[6] - 0.2737836802451794 x[3,1]
   - 0.6304431107138295 x[3,2] + 0.2737836802451794 x[6,1]
   + 0.6304431107138295 x[6,2] >= 0
 findWorstP[6,4]: z - 0.0957732090409909 cashProportion[4]
   + 0.0957732090409909 cashProportion[6] - 0.2737836802451794 x[4,1]
   - 0.6304431107138295 x[4,2] + 0.2737836802451794 x[6,1]
   + 0.6304431107138295 x[6,2] >= 0
 findWorstP[6,5]: z - 0.0957732090409909 cashProportion[5]
   + 0.0957732090409909 cashProportion[6] - 0.2737836802451794 x[5,1]
   - 0.6304431107138295 x[5,2] + 0.2737836802451794 x[6,1]
   + 0.6304431107138295 x[6,2] >= 0
 findWorstP[6,7]: z + 0.0957732090409909 cashProportion[6]
   - 0.0957732090409909 cashProportion[7] + 0.2737836802451794 x[6,1]
   + 0.6304431107138295 x[6,2] - 0.2737836802451794 x[7,1]
   - 0.6304431107138295 x[7,2] >= 0
 findWorstP[7,1]: z - 0.0800512327889849 cashProportion[1]
   + 0.0800512327889849 cashProportion[7] - 0.4323300245490447 x[1,1]
   - 0.4876187426619703 x[1,2] + 0.4323300245490447 x[7,1]
   + 0.4876187426619703 x[7,2] >= 0
 findWorstP[7,2]: z - 0.0800512327889849 cashProportion[2]
   + 0.0800512327889849 cashProportion[7] - 0.4323300245490447 x[2,1]
   - 0.4876187426619703 x[2,2] + 0.4323300245490447 x[7,1]
   + 0.4876187426619703 x[7,2] >= 0
 findWorstP[7,3]: z - 0.0800512327889849 cashProportion[3]
   + 0.0800512327889849 cashProportion[7] - 0.4323300245490447 x[3,1]
   - 0.4876187426619703 x[3,2] + 0.4323300245490447 x[7,1]
   + 0.4876187426619703 x[7,2] >= 0
 findWorstP[7,4]: z - 0.0800512327889849 cashProportion[4]
   + 0.0800512327889849 cashProportion[7] - 0.4323300245490447 x[4,1]
   - 0.4876187426619703 x[4,2] + 0.4323300245490447 x[7,1]
   + 0.4876187426619703 x[7,2] >= 0
 findWorstP[7,5]: z - 0.0800512327889849 cashProportion[5]
   + 0.0800512327889849 cashProportion[7] - 0.4323300245490447 x[5,1]
   - 0.4876187426619703 x[5,2] + 0.4323300245490447 x[7,1]
   + 0.4876187426619703 x[7,2] >= 0
 findWorstP[7,6]: z - 0.0800512327889849 cashProportion[6]
   + 0.0800512327889849 cashProportion[7] - 0.4323300245490447 x[6,1]
   - 0.4876187426619703 x[6,2] + 0.4323300245490447 x[7,1]
   + 0.4876187426619703 x[7,2] >= 0
Bounds
 z <= 1
 -infinity <= cashProportion[1] <= 1
 -infinity <= cashProportion[2] <= 1
 -infinity <= cashProportion[3] <= 1
 -infinity <= cashProportion[4] <= 1
 -infinity <= cashProportion[5] <= 1
 -infinity <= cashProportion[6] <= 1
 -infinity <= cashProportion[7] <= 1
Binaries
 x[1,1] x[1,2] x[2,1] x[2,2] x[3,1] x[3,2] x[4,1] x[4,2] x[5,1] x[5,2]
 x[6,1] x[6,2] x[7,1] x[7,2]
End
