data/mps_files/q3/122_2.mps
NAME foo
ROWS
 N  OBJ
 E  allocateEach[1]
 E  allocateEach[2]
 E  allocateAllCash
 G  findWorstP[1,2]
 G  findWorstP[1,3]
 G  findWorstP[1,4]
 G  findWorstP[1,5]
 G  findWorstP[1,6]
 G  findWorstP[1,7]
 G  findWorstP[2,1]
 G  findWorstP[2,3]
 G  findWorstP[2,4]
 G  findWorstP[2,5]
 G  findWorstP[2,6]
 G  findWorstP[2,7]
 G  findWorstP[3,1]
 G  findWorstP[3,2]
 G  findWorstP[3,4]
 G  findWorstP[3,5]
 G  findWorstP[3,6]
 G  findWorstP[3,7]
 G  findWorstP[4,1]
 G  findWorstP[4,2]
 G  findWorstP[4,3]
 G  findWorstP[4,5]
 G  findWorstP[4,6]
 G  findWorstP[4,7]
 G  findWorstP[5,1]
 G  findWorstP[5,2]
 G  findWorstP[5,3]
 G  findWorstP[5,4]
 G  findWorstP[5,6]
 G  findWorstP[5,7]
 G  findWorstP[6,1]
 G  findWorstP[6,2]
 G  findWorstP[6,3]
 G  findWorstP[6,4]
 G  findWorstP[6,5]
 G  findWorstP[6,7]
 G  findWorstP[7,1]
 G  findWorstP[7,2]
 G  findWorstP[7,3]
 G  findWorstP[7,4]
 G  findWorstP[7,5]
 G  findWorstP[7,6]
COLUMNS
    z         OBJ       1
    z         findWorstP[1,2]  1
    z         findWorstP[1,3]  1
    z         findWorstP[1,4]  1
    z         findWorstP[1,5]  1
    z         findWorstP[1,6]  1
    z         findWorstP[1,7]  1
    z         findWorstP[2,1]  1
    z         findWorstP[2,3]  1
    z         findWorstP[2,4]  1
    z         findWorstP[2,5]  1
    z         findWorstP[2,6]  1
    z         findWorstP[2,7]  1
    z         findWorstP[3,1]  1
    z         findWorstP[3,2]  1
    z         findWorstP[3,4]  1
    z         findWorstP[3,5]  1
    z         findWorstP[3,6]  1
    z         findWorstP[3,7]  1
    z         findWorstP[4,1]  1
    z         findWorstP[4,2]  1
    z         findWorstP[4,3]  1
    z         findWorstP[4,5]  1
    z         findWorstP[4,6]  1
    z         findWorstP[4,7]  1
    z         findWorstP[5,1]  1
    z         findWorstP[5,2]  1
    z         findWorstP[5,3]  1
    z         findWorstP[5,4]  1
    z         findWorstP[5,6]  1
    z         findWorstP[5,7]  1
    z         findWorstP[6,1]  1
    z         findWorstP[6,2]  1
    z         findWorstP[6,3]  1
    z         findWorstP[6,4]  1
    z         findWorstP[6,5]  1
    z         findWorstP[6,7]  1
    z         findWorstP[7,1]  1
    z         findWorstP[7,2]  1
    z         findWorstP[7,3]  1
    z         findWorstP[7,4]  1
    z         findWorstP[7,5]  1
    z         findWorstP[7,6]  1
    cashProportion[1]  allocateAllCash  1
    cashProportion[1]  findWorstP[1,2]  8.9440104943056487e-02
    cashProportion[1]  findWorstP[1,3]  8.9440104943056487e-02
    cashProportion[1]  findWorstP[1,4]  8.9440104943056487e-02
    cashProportion[1]  findWorstP[1,5]  8.9440104943056487e-02
    cashProportion[1]  findWorstP[1,6]  8.9440104943056487e-02
    cashProportion[1]  findWorstP[1,7]  8.9440104943056487e-02
    cashProportion[1]  findWorstP[2,1]  -2.5862068965517243e-01
    cashProportion[1]  findWorstP[3,1]  -1.6672224074691566e-01
    cashProportion[1]  findWorstP[4,1]  -1.7672007540056553e-01
    cashProportion[1]  findWorstP[5,1]  -1.7840152235965751e-01
    cashProportion[1]  findWorstP[6,1]  -9.5773209040990931e-02
    cashProportion[1]  findWorstP[7,1]  -8.0051232788984947e-02
    cashProportion[2]  allocateAllCash  1
    cashProportion[2]  findWorstP[1,2]  -8.9440104943056487e-02
    cashProportion[2]  findWorstP[2,1]  2.5862068965517243e-01
    cashProportion[2]  findWorstP[2,3]  2.5862068965517243e-01
    cashProportion[2]  findWorstP[2,4]  2.5862068965517243e-01
    cashProportion[2]  findWorstP[2,5]  2.5862068965517243e-01
    cashProportion[2]  findWorstP[2,6]  2.5862068965517243e-01
    cashProportion[2]  findWorstP[2,7]  2.5862068965517243e-01
    cashProportion[2]  findWorstP[3,2]  -1.6672224074691566e-01
    cashProportion[2]  findWorstP[4,2]  -1.7672007540056553e-01
    cashProportion[2]  findWorstP[5,2]  -1.7840152235965751e-01
    cashProportion[2]  findWorstP[6,2]  -9.5773209040990931e-02
    cashProportion[2]  findWorstP[7,2]  -8.0051232788984947e-02
    cashProportion[3]  allocateAllCash  1
    cashProportion[3]  findWorstP[1,3]  -8.9440104943056487e-02
    cashProportion[3]  findWorstP[2,3]  -2.5862068965517243e-01
    cashProportion[3]  findWorstP[3,1]  1.6672224074691566e-01
    cashProportion[3]  findWorstP[3,2]  1.6672224074691566e-01
    cashProportion[3]  findWorstP[3,4]  1.6672224074691566e-01
    cashProportion[3]  findWorstP[3,5]  1.6672224074691566e-01
    cashProportion[3]  findWorstP[3,6]  1.6672224074691566e-01
    cashProportion[3]  findWorstP[3,7]  1.6672224074691566e-01
    cashProportion[3]  findWorstP[4,3]  -1.7672007540056553e-01
    cashProportion[3]  findWorstP[5,3]  -1.7840152235965751e-01
    cashProportion[3]  findWorstP[6,3]  -9.5773209040990931e-02
    cashProportion[3]  findWorstP[7,3]  -8.0051232788984947e-02
    cashProportion[4]  allocateAllCash  1
    cashProportion[4]  findWorstP[1,4]  -8.9440104943056487e-02
    cashProportion[4]  findWorstP[2,4]  -2.5862068965517243e-01
    cashProportion[4]  findWorstP[3,4]  -1.6672224074691566e-01
    cashProportion[4]  findWorstP[4,1]  1.7672007540056553e-01
    cashProportion[4]  findWorstP[4,2]  1.7672007540056553e-01
    cashProportion[4]  findWorstP[4,3]  1.7672007540056553e-01
    cashProportion[4]  findWorstP[4,5]  1.7672007540056553e-01
    cashProportion[4]  findWorstP[4,6]  1.7672007540056553e-01
    cashProportion[4]  findWorstP[4,7]  1.7672007540056553e-01
    cashProportion[4]  findWorstP[5,4]  -1.7840152235965751e-01
    cashProportion[4]  findWorstP[6,4]  -9.5773209040990931e-02
    cashProportion[4]  findWorstP[7,4]  -8.0051232788984947e-02
    cashProportion[5]  allocateAllCash  1
    cashProportion[5]  findWorstP[1,5]  -8.9440104943056487e-02
    cashProportion[5]  findWorstP[2,5]  -2.5862068965517243e-01
    cashProportion[5]  findWorstP[3,5]  -1.6672224074691566e-01
    cashProportion[5]  findWorstP[4,5]  -1.7672007540056553e-01
    cashProportion[5]  findWorstP[5,1]  1.7840152235965751e-01
    cashProportion[5]  findWorstP[5,2]  1.7840152235965751e-01
    cashProportion[5]  findWorstP[5,3]  1.7840152235965751e-01
    cashProportion[5]  findWorstP[5,4]  1.7840152235965751e-01
    cashProportion[5]  findWorstP[5,6]  1.7840152235965751e-01
    cashProportion[5]  findWorstP[5,7]  1.7840152235965751e-01
    cashProportion[5]  findWorstP[6,5]  -9.5773209040990931e-02
    cashProportion[5]  findWorstP[7,5]  -8.0051232788984947e-02
    cashProportion[6]  allocateAllCash  1
    cashProportion[6]  findWorstP[1,6]  -8.9440104943056487e-02
    cashProportion[6]  findWorstP[2,6]  -2.5862068965517243e-01
    cashProportion[6]  findWorstP[3,6]  -1.6672224074691566e-01
    cashProportion[6]  findWorstP[4,6]  -1.7672007540056553e-01
    cashProportion[6]  findWorstP[5,6]  -1.7840152235965751e-01
    cashProportion[6]  findWorstP[6,1]  9.5773209040990931e-02
    cashProportion[6]  findWorstP[6,2]  9.5773209040990931e-02
    cashProportion[6]  findWorstP[6,3]  9.5773209040990931e-02
    cashProportion[6]  findWorstP[6,4]  9.5773209040990931e-02
    cashProportion[6]  findWorstP[6,5]  9.5773209040990931e-02
    cashProportion[6]  findWorstP[6,7]  9.5773209040990931e-02
    cashProportion[6]  findWorstP[7,6]  -8.0051232788984947e-02
    cashProportion[7]  allocateAllCash  1
    cashProportion[7]  findWorstP[1,7]  -8.9440104943056487e-02
    cashProportion[7]  findWorstP[2,7]  -2.5862068965517243e-01
    cashProportion[7]  findWorstP[3,7]  -1.6672224074691566e-01
    cashProportion[7]  findWorstP[4,7]  -1.7672007540056553e-01
    cashProportion[7]  findWorstP[5,7]  -1.7840152235965751e-01
    cashProportion[7]  findWorstP[6,7]  -9.5773209040990931e-02
    cashProportion[7]  findWorstP[7,1]  8.0051232788984947e-02
    cashProportion[7]  findWorstP[7,2]  8.0051232788984947e-02
    cashProportion[7]  findWorstP[7,3]  8.0051232788984947e-02
    cashProportion[7]  findWorstP[7,4]  8.0051232788984947e-02
    cashProportion[7]  findWorstP[7,5]  8.0051232788984947e-02
    cashProportion[7]  findWorstP[7,6]  8.0051232788984947e-02
    MARKER    'MARKER'                 'INTORG'
    x[1,1]    allocateEach[1]  1
    x[1,1]    findWorstP[1,2]  0.547492695724763
    x[1,1]    findWorstP[1,3]  0.547492695724763
    x[1,1]    findWorstP[1,4]  0.547492695724763
    x[1,1]    findWorstP[1,5]  0.547492695724763
    x[1,1]    findWorstP[1,6]  0.547492695724763
    x[1,1]    findWorstP[1,7]  0.547492695724763
    x[1,1]    findWorstP[2,1]  -7.0965517241379306e-01
    x[1,1]    findWorstP[3,1]  -7.5814160275647446e-01
    x[1,1]    findWorstP[4,1]  -1.4597078228086710e-01
    x[1,1]    findWorstP[5,1]  -1.9529019980970505e-01
    x[1,1]    findWorstP[6,1]  -2.7378368024517935e-01
    x[1,1]    findWorstP[7,1]  -4.3233002454904468e-01
    x[1,2]    allocateEach[2]  1
    x[1,2]    findWorstP[1,2]  3.6306719933218057e-01
    x[1,2]    findWorstP[1,3]  3.6306719933218057e-01
    x[1,2]    findWorstP[1,4]  3.6306719933218057e-01
    x[1,2]    findWorstP[1,5]  3.6306719933218057e-01
    x[1,2]    findWorstP[1,6]  3.6306719933218057e-01
    x[1,2]    findWorstP[1,7]  3.6306719933218057e-01
    x[1,2]    findWorstP[2,1]  -3.1724137931034478e-02
    x[1,2]    findWorstP[3,1]  -7.5136156496609971e-02
    x[1,2]    findWorstP[4,1]  -6.7730914231856743e-01
    x[1,2]    findWorstP[5,1]  -6.2630827783063747e-01
    x[1,2]    findWorstP[6,1]  -6.3044311071382952e-01
    x[1,2]    findWorstP[7,1]  -4.8761874266197025e-01
    x[2,1]    allocateEach[1]  1
    x[2,1]    findWorstP[1,2]  -0.547492695724763
    x[2,1]    findWorstP[2,1]  7.0965517241379306e-01
    x[2,1]    findWorstP[2,3]  7.0965517241379306e-01
    x[2,1]    findWorstP[2,4]  7.0965517241379306e-01
    x[2,1]    findWorstP[2,5]  7.0965517241379306e-01
    x[2,1]    findWorstP[2,6]  7.0965517241379306e-01
    x[2,1]    findWorstP[2,7]  7.0965517241379306e-01
    x[2,1]    findWorstP[3,2]  -7.5814160275647446e-01
    x[2,1]    findWorstP[4,2]  -1.4597078228086710e-01
    x[2,1]    findWorstP[5,2]  -1.9529019980970505e-01
    x[2,1]    findWorstP[6,2]  -2.7378368024517935e-01
    x[2,1]    findWorstP[7,2]  -4.3233002454904468e-01
    x[2,2]    allocateEach[2]  1
    x[2,2]    findWorstP[1,2]  -3.6306719933218057e-01
    x[2,2]    findWorstP[2,1]  3.1724137931034478e-02
    x[2,2]    findWorstP[2,3]  3.1724137931034478e-02
    x[2,2]    findWorstP[2,4]  3.1724137931034478e-02
    x[2,2]    findWorstP[2,5]  3.1724137931034478e-02
    x[2,2]    findWorstP[2,6]  3.1724137931034478e-02
    x[2,2]    findWorstP[2,7]  3.1724137931034478e-02
    x[2,2]    findWorstP[3,2]  -7.5136156496609971e-02
    x[2,2]    findWorstP[4,2]  -6.7730914231856743e-01
    x[2,2]    findWorstP[5,2]  -6.2630827783063747e-01
    x[2,2]    findWorstP[6,2]  -6.3044311071382952e-01
    x[2,2]    findWorstP[7,2]  -4.8761874266197025e-01
    x[3,1]    allocateEach[1]  1
    x[3,1]    findWorstP[1,3]  -0.547492695724763
    x[3,1]    findWorstP[2,3]  -7.0965517241379306e-01
    x[3,1]    findWorstP[3,1]  7.5814160275647446e-01
    x[3,1]    findWorstP[3,2]  7.5814160275647446e-01
    x[3,1]    findWorstP[3,4]  7.5814160275647446e-01
    x[3,1]    findWorstP[3,5]  7.5814160275647446e-01
    x[3,1]    findWorstP[3,6]  7.5814160275647446e-01
    x[3,1]    findWorstP[3,7]  7.5814160275647446e-01
    x[3,1]    findWorstP[4,3]  -1.4597078228086710e-01
    x[3,1]    findWorstP[5,3]  -1.9529019980970505e-01
    x[3,1]    findWorstP[6,3]  -2.7378368024517935e-01
    x[3,1]    findWorstP[7,3]  -4.3233002454904468e-01
    x[3,2]    allocateEach[2]  1
    x[3,2]    findWorstP[1,3]  -3.6306719933218057e-01
    x[3,2]    findWorstP[2,3]  -3.1724137931034478e-02
    x[3,2]    findWorstP[3,1]  7.5136156496609971e-02
    x[3,2]    findWorstP[3,2]  7.5136156496609971e-02
    x[3,2]    findWorstP[3,4]  7.5136156496609971e-02
    x[3,2]    findWorstP[3,5]  7.5136156496609971e-02
    x[3,2]    findWorstP[3,6]  7.5136156496609971e-02
    x[3,2]    findWorstP[3,7]  7.5136156496609971e-02
    x[3,2]    findWorstP[4,3]  -6.7730914231856743e-01
    x[3,2]    findWorstP[5,3]  -6.2630827783063747e-01
    x[3,2]    findWorstP[6,3]  -6.3044311071382952e-01
    x[3,2]    findWorstP[7,3]  -4.8761874266197025e-01
    x[4,1]    allocateEach[1]  1
    x[4,1]    findWorstP[1,4]  -0.547492695724763
    x[4,1]    findWorstP[2,4]  -7.0965517241379306e-01
    x[4,1]    findWorstP[3,4]  -7.5814160275647446e-01
    x[4,1]    findWorstP[4,1]  1.4597078228086710e-01
    x[4,1]    findWorstP[4,2]  1.4597078228086710e-01
    x[4,1]    findWorstP[4,3]  1.4597078228086710e-01
    x[4,1]    findWorstP[4,5]  1.4597078228086710e-01
    x[4,1]    findWorstP[4,6]  1.4597078228086710e-01
    x[4,1]    findWorstP[4,7]  1.4597078228086710e-01
    x[4,1]    findWorstP[5,4]  -1.9529019980970505e-01
    x[4,1]    findWorstP[6,4]  -2.7378368024517935e-01
    x[4,1]    findWorstP[7,4]  -4.3233002454904468e-01
    x[4,2]    allocateEach[2]  1
    x[4,2]    findWorstP[1,4]  -3.6306719933218057e-01
    x[4,2]    findWorstP[2,4]  -3.1724137931034478e-02
    x[4,2]    findWorstP[3,4]  -7.5136156496609971e-02
    x[4,2]    findWorstP[4,1]  6.7730914231856743e-01
    x[4,2]    findWorstP[4,2]  6.7730914231856743e-01
    x[4,2]    findWorstP[4,3]  6.7730914231856743e-01
    x[4,2]    findWorstP[4,5]  6.7730914231856743e-01
    x[4,2]    findWorstP[4,6]  6.7730914231856743e-01
    x[4,2]    findWorstP[4,7]  6.7730914231856743e-01
    x[4,2]    findWorstP[5,4]  -6.2630827783063747e-01
    x[4,2]    findWorstP[6,4]  -6.3044311071382952e-01
    x[4,2]    findWorstP[7,4]  -4.8761874266197025e-01
    x[5,1]    allocateEach[1]  1
    x[5,1]    findWorstP[1,5]  -0.547492695724763
    x[5,1]    findWorstP[2,5]  -7.0965517241379306e-01
    x[5,1]    findWorstP[3,5]  -7.5814160275647446e-01
    x[5,1]    findWorstP[4,5]  -1.4597078228086710e-01
    x[5,1]    findWorstP[5,1]  1.9529019980970505e-01
    x[5,1]    findWorstP[5,2]  1.9529019980970505e-01
    x[5,1]    findWorstP[5,3]  1.9529019980970505e-01
    x[5,1]    findWorstP[5,4]  1.9529019980970505e-01
    x[5,1]    findWorstP[5,6]  1.9529019980970505e-01
    x[5,1]    findWorstP[5,7]  1.9529019980970505e-01
    x[5,1]    findWorstP[6,5]  -2.7378368024517935e-01
    x[5,1]    findWorstP[7,5]  -4.3233002454904468e-01
    x[5,2]    allocateEach[2]  1
    x[5,2]    findWorstP[1,5]  -3.6306719933218057e-01
    x[5,2]    findWorstP[2,5]  -3.1724137931034478e-02
    x[5,2]    findWorstP[3,5]  -7.5136156496609971e-02
    x[5,2]    findWorstP[4,5]  -6.7730914231856743e-01
    x[5,2]    findWorstP[5,1]  6.2630827783063747e-01
    x[5,2]    findWorstP[5,2]  6.2630827783063747e-01
    x[5,2]    findWorstP[5,3]  6.2630827783063747e-01
    x[5,2]    findWorstP[5,4]  6.2630827783063747e-01
    x[5,2]    findWorstP[5,6]  6.2630827783063747e-01
    x[5,2]    findWorstP[5,7]  6.2630827783063747e-01
    x[5,2]    findWorstP[6,5]  -6.3044311071382952e-01
    x[5,2]    findWorstP[7,5]  -4.8761874266197025e-01
    x[6,1]    allocateEach[1]  1
    x[6,1]    findWorstP[1,6]  -0.547492695724763
    x[6,1]    findWorstP[2,6]  -7.0965517241379306e-01
    x[6,1]    findWorstP[3,6]  -7.5814160275647446e-01
    x[6,1]    findWorstP[4,6]  -1.4597078228086710e-01
    x[6,1]    findWorstP[5,6]  -1.9529019980970505e-01
    x[6,1]    findWorstP[6,1]  2.7378368024517935e-01
    x[6,1]    findWorstP[6,2]  2.7378368024517935e-01
    x[6,1]    findWorstP[6,3]  2.7378368024517935e-01
    x[6,1]    findWorstP[6,4]  2.7378368024517935e-01
    x[6,1]    findWorstP[6,5]  2.7378368024517935e-01
    x[6,1]    findWorstP[6,7]  2.7378368024517935e-01
    x[6,1]    findWorstP[7,6]  -4.3233002454904468e-01
    x[6,2]    allocateEach[2]  1
    x[6,2]    findWorstP[1,6]  -3.6306719933218057e-01
    x[6,2]    findWorstP[2,6]  -3.1724137931034478e-02
    x[6,2]    findWorstP[3,6]  -7.5136156496609971e-02
    x[6,2]    findWorstP[4,6]  -6.7730914231856743e-01
    x[6,2]    findWorstP[5,6]  -6.2630827783063747e-01
    x[6,2]    findWorstP[6,1]  6.3044311071382952e-01
    x[6,2]    findWorstP[6,2]  6.3044311071382952e-01
    x[6,2]    findWorstP[6,3]  6.3044311071382952e-01
    x[6,2]    findWorstP[6,4]  6.3044311071382952e-01
    x[6,2]    findWorstP[6,5]  6.3044311071382952e-01
    x[6,2]    findWorstP[6,7]  6.3044311071382952e-01
    x[6,2]    findWorstP[7,6]  -4.8761874266197025e-01
    x[7,1]    allocateEach[1]  1
    x[7,1]    findWorstP[1,7]  -0.547492695724763
    x[7,1]    findWorstP[2,7]  -7.0965517241379306e-01
    x[7,1]    findWorstP[3,7]  -7.5814160275647446e-01
    x[7,1]    findWorstP[4,7]  -1.4597078228086710e-01
    x[7,1]    findWorstP[5,7]  -1.9529019980970505e-01
    x[7,1]    findWorstP[6,7]  -2.7378368024517935e-01
    x[7,1]    findWorstP[7,1]  4.3233002454904468e-01
    x[7,1]    findWorstP[7,2]  4.3233002454904468e-01
    x[7,1]    findWorstP[7,3]  4.3233002454904468e-01
    x[7,1]    findWorstP[7,4]  4.3233002454904468e-01
    x[7,1]    findWorstP[7,5]  4.3233002454904468e-01
    x[7,1]    findWorstP[7,6]  4.3233002454904468e-01
    x[7,2]    allocateEach[2]  1
    x[7,2]    findWorstP[1,7]  -3.6306719933218057e-01
    x[7,2]    findWorstP[2,7]  -3.1724137931034478e-02
    x[7,2]    findWorstP[3,7]  -7.5136156496609971e-02
    x[7,2]    findWorstP[4,7]  -6.7730914231856743e-01
    x[7,2]    findWorstP[5,7]  -6.2630827783063747e-01
    x[7,2]    findWorstP[6,7]  -6.3044311071382952e-01
    x[7,2]    findWorstP[7,1]  4.8761874266197025e-01
    x[7,2]    findWorstP[7,2]  4.8761874266197025e-01
    x[7,2]    findWorstP[7,3]  4.8761874266197025e-01
    x[7,2]    findWorstP[7,4]  4.8761874266197025e-01
    x[7,2]    findWorstP[7,5]  4.8761874266197025e-01
    x[7,2]    findWorstP[7,6]  4.8761874266197025e-01
    MARKER    'MARKER'                 'INTEND'
RHS
    RHS1      allocateEach[1]  1
    RHS1      allocateEach[2]  1
    RHS1      allocateAllCash  1
BOUNDS
 UP BND1      z         1
 MI BND1      cashProportion[1]
 UP BND1      cashProportion[1]  1
 MI BND1      cashProportion[2]
 UP BND1      cashProportion[2]  1
 MI BND1      cashProportion[3]
 UP BND1      cashProportion[3]  1
 MI BND1      cashProportion[4]
 UP BND1      cashProportion[4]  1
 MI BND1      cashProportion[5]
 UP BND1      cashProportion[5]  1
 MI BND1      cashProportion[6]
 UP BND1      cashProportion[6]  1
 MI BND1      cashProportion[7]
 UP BND1      cashProportion[7]  1
 BV BND1      x[1,1]  
 BV BND1      x[1,2]  
 BV BND1      x[2,1]  
 BV BND1      x[2,2]  
 BV BND1      x[3,1]  
 BV BND1      x[3,2]  
 BV BND1      x[4,1]  
 BV BND1      x[4,2]  
 BV BND1      x[5,1]  
 BV BND1      x[5,2]  
 BV BND1      x[6,1]  
 BV BND1      x[6,2]  
 BV BND1      x[7,1]  
 BV BND1      x[7,2]  
ENDATA
